p cnf 96 319
-3 -2 0
-3 -1 0
2 1 3 0
-5 3 0
-5 4 0
-3 -4 5 0
1 -5 -6 0
-1 5 -6 0
1 5 6 0
-1 -5 6 0
-9 7 0
-9 -8 0
-7 8 9 0
-12 -10 0
-12 11 0
10 -11 12 0
-13 9 0
-13 12 0
-9 -12 13 0
15 -8 0
15 -14 0
8 14 -15 0
16 -13 0
16 -15 0
13 15 -16 0
-6 -16 -17 0
6 16 -17 0
-6 16 17 0
6 -16 17 0
-18 7 -19 0
18 -7 -19 0
-18 -7 19 0
18 7 19 0
-20 -19 0
-20 -19 0
19 20 0
-21 -12 0
-21 -20 0
12 20 21 0
-22 17 0
-22 -21 0
-17 21 22 0
-23 -24 -25 0
23 24 -25 0
-23 24 25 0
23 -24 25 0
-27 -26 0
-27 23 0
26 -23 27 0
25 -27 -28 0
-25 27 -28 0
25 27 28 0
-25 -27 28 0
29 22 0
29 -28 0
-22 28 -29 0
-18 7 -30 0
18 -7 -30 0
-18 -7 30 0
18 7 30 0
-31 12 0
-31 30 0
-12 -30 31 0
-32 31 0
-32 -7 0
-31 7 32 0
-33 -11 0
-33 14 0
11 -14 33 0
-33 -14 -34 0
33 14 -34 0
-33 14 34 0
33 -14 34 0
32 34 -35 0
-32 -34 -35 0
32 -34 35 0
-32 34 35 0
-36 29 0
-36 35 0
-29 -35 36 0
37 15 0
37 26 0
-15 -26 -37 0
-38 -4 0
-38 18 0
4 -18 38 0
39 25 0
39 38 0
-25 -38 -39 0
-40 39 0
-40 -20 0
-39 20 40 0
41 37 0
41 40 0
-37 -40 -41 0
-42 30 0
-42 -3 0
-30 3 42 0
-43 -11 -44 0
43 11 -44 0
-43 11 44 0
43 -11 44 0
-45 -42 0
-45 -44 0
42 44 45 0
-46 -41 0
-46 45 0
41 -45 46 0
-36 -46 -47 0
36 46 -47 0
-36 46 47 0
36 -46 47 0
48 26 0
48 26 0
-26 -48 0
-49 10 0
-49 -11 0
-10 11 49 0
-50 12 0
-50 -38 0
-12 38 50 0
2 -9 -51 0
-2 9 -51 0
2 9 51 0
-2 -9 51 0
-24 -51 -52 0
24 51 -52 0
-24 51 52 0
24 -51 52 0
-23 52 -53 0
23 -52 -53 0
-23 -52 53 0
23 52 53 0
54 -50 0
54 53 0
50 -53 -54 0
55 49 0
55 -54 0
-49 54 -55 0
-56 -48 0
-56 55 0
48 -55 56 0
57 -3 0
57 11 0
3 -11 -57 0
58 -57 0
58 -52 0
57 52 -58 0
-56 -58 -59 0
56 58 -59 0
-56 58 59 0
56 -58 59 0
60 -47 0
60 -59 0
47 59 -60 0
-61 24 0
-61 12 0
-24 -12 61 0
-62 61 0
-62 61 0
-61 62 0
-63 21 0
-63 -62 0
-21 62 63 0
-12 64 0
12 64 0
-65 14 0
-65 -64 0
-14 64 65 0
8 23 -66 0
-8 -23 -66 0
8 -23 66 0
-8 23 66 0
-67 -65 0
-67 -66 0
65 66 67 0
-63 -67 -68 0
63 67 -68 0
-63 67 68 0
63 -67 68 0
1 31 -69 0
-1 -31 -69 0
1 -31 69 0
-1 31 69 0
70 -21 0
70 6 0
21 -6 -70 0
-71 -70 0
-71 19 0
70 -19 71 0
72 -25 0
72 1 0
25 -1 -72 0
-73 -71 0
-73 72 0
71 -72 73 0
74 69 0
74 -73 0
-69 73 -74 0
75 -1 0
75 -27 0
1 27 -75 0
-76 39 0
-76 -43 0
-39 43 76 0
-77 75 0
-77 76 0
-75 -76 77 0
-78 -27 0
-78 9 0
27 -9 78 0
79 -78 0
79 -43 0
78 43 -79 0
80 77 0
80 79 0
-77 -79 -80 0
81 74 0
81 -80 0
-74 80 -81 0
82 52 0
82 -30 0
-52 30 -82 0
-30 31 -83 0
30 -31 -83 0
-30 -31 83 0
30 31 83 0
84 -52 0
84 83 0
52 -83 -84 0
-85 -82 0
-85 84 0
82 -84 85 0
86 -81 0
86 85 0
81 -85 -86 0
-87 -68 0
-87 86 0
68 -86 87 0
26 30 -88 0
-26 -30 -88 0
26 -30 88 0
-26 30 88 0
-89 -7 0
-89 88 0
7 -88 89 0
-90 87 0
-90 -89 0
-87 89 90 0
-91 -23 0
-91 3 0
23 -3 91 0
93 -92 0
93 78 0
92 -78 -93 0
94 -91 0
94 93 0
91 -93 -94 0
95 -90 0
95 94 0
90 -94 -95 0
60 -95 -96 0
-60 95 -96 0
60 95 96 0
-60 -95 96 0
50 55 0
-65 -13 26 0
-5 -31 93 -77 0
86 38 -71 -27 70 0
7 4 -34 -69 56 0
-58 -65 56 0
71 -42 -13 -37 0
-10 -93 -16 0
-41 91 36 -22 -65 0
-42 63 9 -25 0
3 11 57 0
23 -82 0
56 40 76 -49 0
39 -6 -51 83 0
46 33 -93 0
-7 -70 86 -65 0
29 -33 38 0
60 -56 -35 0
-38 84 -79 94 0
37 91 -81 -87 0
26 25 0
33 85 -83 95 0
53 37 56 41 0
86 -38 -46 -92 72 0
-42 -55 0
88 -78 79 -13 0
-55 84 41 0
83 -94 37 0
-44 39 0
65 20 24 0
45 75 29 -49 0
25 -49 40 20 53 0
-64 79 60 0
-84 -81 0
84 61 0
-73 -76 -5 -89 65 0
31 -47 -57 -79 72 -26 0
-68 -64 29 71 0
31 -33 85 43 81 -36 0
-89 79 -77 55 -46 25 0
12 51 -7 0
54 22 61 -39 -18 0
-56 -52 21 89 -85 15 0
-10 -7 -16 0
-45 29 0
-8 88 -84 41 0
-75 -50 91 0
-64 88 -12 -30 48 0
-5 -75 0
-13 -50 17 0
35 38 27 59 0
-33 88 74 70 -55 0
51 83 0
96 0
